units          real
atom_style     full
boundary       p p p

pair_style     lj/cut/coul/long     12.0
pair_modify    mix arithmetic
pair_modify    tail yes
kspace_style   pppm 1e-4
dielectric     1.0

special_bonds  %SPECIALBONDS%
bond_style     %BONDSTYLE%
angle_style    %ANGLESTYLE%
dihedral_style %DIHEDRALSTYLE%
improper_style %IMPROPERSTYLE%

read_data      %DATAFILE%

variable       T equal %T%
variable       P equal %P%

velocity       all create $T %RANDINT% mom yes rot yes dist gaussian

timestep       %DT%
fix            fSHAKE all shake 0.0001 20 0 m 1
fix            fNPT all npt temp $T $T 100 iso $P $P 1000

compute        cINTER all inter
variable       hov equal 8.314*$T/4184-c_cINTER[1]/%NMOL%

thermo_style   custom step temp press pe density lx c_cINTER[1] v_hov
thermo         100

dump           1 all atom 10000 npt.lammpstrj
dump_modify    1 sort id

run            %STEPS%
write_restart  npt.rst
write_data     npt.data

