units          real
atom_style     full
boundary       p p p

pair_style     lj/cut/coul/long     12.0
pair_modify    mix arithmetic
pair_modify    tail yes
kspace_style   pppm 1e-4
dielectric     1.0

special_bonds  %SPECIALBONDS%
bond_style     %BONDSTYLE%
angle_style    %ANGLESTYLE%
dihedral_style %DIHEDRALSTYLE%
improper_style %IMPROPERSTYLE%

read_data      %DATAFILE%

variable       T equal %T%
variable       P equal %P%

velocity       all create $T %RANDINT% mom yes rot yes dist gaussian

timestep       %DT%
fix            fSHAKE all shake 0.0001 20 0 m 1
fix            fNPT all nvt temp $T $T 100

thermo_style   custom step temp press pe density lx
thermo         100

dump           1 all atom 10000 nvt.lammpstrj
dump_modify    1 sort id

run            %STEPS%
write_restart  nvt.rst
write_data     nvt.data

